     Program PWSCF v.6.7MaX starts on 29Jun2021 at  0:17:52

     Waiting for input...
     Reading input from standard input

     Current dimensions of program PWSCF are:
     Max number of different atomic species (ntypx) = 10
     Max number of k-points (npk) =  40000
     Max angular momentum in pseudopotentials (lmaxx) =  3
     file Mo.pbe-spn-rrkjus_psl.1.0.0.UPF: wavefunction(s)  4S renormalized

     IMPORTANT: XC functional enforced from input :
     Exchange-correlation= PBE
                           (   1   4   3   4   0   0   0)
     Any further DFT definition will be discarded
     Please, verify this is what you really want

     Subspace diagonalization in iterative solution of the eigenvalue problem:
     a serial algorithm will be used

     Found symmetry operation: I + (  0.5000  0.0000  0.0000)
     This is a supercell, fractional translations are disabled
     Message from routine setup:
     using ibrav=0 with symmetry is DISCOURAGED, use correct ibrav instead

     bravais-lattice index     =            0
     lattice parameter (alat)  =      11.8675  a.u.
     unit-cell volume          =    6345.3086 (a.u.)^3
     number of atoms/cell      =           12
     number of atomic types    =            2
     number of electrons       =       104.00
     number of Kohn-Sham states=           62
     kinetic-energy cutoff     =      60.0000  Ry
     charge density cutoff     =     240.0000  Ry
     scf convergence threshold =      1.0E-06
     mixing beta               =       0.5000
     number of iterations used =            8  plain     mixing
     energy convergence thresh.=      1.0E-06
     force convergence thresh. =      1.0E-04
     Exchange-correlation= PBE
                           (   1   4   3   4   0   0   0)
     nstep                     =           50

     celldm(1)=  11.867480  celldm(2)=   0.000000  celldm(3)=   0.000000
     celldm(4)=   0.000000  celldm(5)=   0.000000  celldm(6)=   0.000000

     crystal axes: (cart. coord. in units of alat)
               a(1) = (   1.000000   0.000000   0.000000 )
               a(2) = (  -0.500000   0.866025   0.000000 )
               a(3) = (   0.000000   0.000000   4.383758 )

     reciprocal axes: (cart. coord. in units 2 pi/alat)
               b(1) = (  1.000000  0.577350 -0.000000 )
               b(2) = (  0.000000  1.154701  0.000000 )
               b(3) = (  0.000000 -0.000000  0.228115 )

     PseudoPot. # 1 for Mo read from file:
     ./Mo.pbe-spn-rrkjus_psl.1.0.0.UPF
     MD5 check sum: 03f09b12e49601d1a456a78ce8b2d514
     Pseudo is Ultrasoft + core correction, Zval = 14.0
     Generated using &quot;atomic&quot; code by A. Dal Corso  v.6.3
     Using radial grid of 1229 points,  6 beta functions with:
                l(1) =   0
                l(2) =   0
                l(3) =   1
                l(4) =   1
                l(5) =   2
                l(6) =   2
     Q(r) pseudized with 0 coefficients

     PseudoPot. # 2 for S  read from file:
     ./S.pbe-n-rrkjus_psl.1.0.0.UPF
     MD5 check sum: 9d0fe39aa2a799ea84730884c9b010f4
     Pseudo is Ultrasoft + core correction, Zval =  6.0
     Generated using &quot;atomic&quot; code by A. Dal Corso  v.6.3
     Using radial grid of 1151 points,  6 beta functions with:
                l(1) =   0
                l(2) =   0
                l(3) =   1
                l(4) =   1
                l(5) =   2
                l(6) =   2
     Q(r) pseudized with 0 coefficients

     atomic species   valence    mass     pseudopotential
        Mo            14.00    95.94000     Mo( 1.00)
        S              6.00    32.06600     S ( 1.00)

      6 Sym. Ops. (no inversion) found

                                    s                        frac. trans.

      isym =  1     identity

 cryst.   s( 1) = (     1          0          0      )
                  (     0          1          0      )
                  (     0          0          1      )

 cart.    s( 1) = (  1.0000000  0.0000000  0.0000000 )
                  (  0.0000000  1.0000000  0.0000000 )
                  (  0.0000000  0.0000000  1.0000000 )

      isym =  2     120 deg rotation - cryst. axis [0,0,1]

[...]

      isym =  3     120 deg rotation - cryst. axis [0,0,-1]

[...]

      isym =  4     inv. 180 deg rotation - cart. axis [1,0,0]

[...]

      isym =  5     inv. 180 deg rotation - cryst. axis [0,1,0]

[...]

      isym =  6     inv. 180 deg rotation - cryst. axis [1,1,0]

 cryst.   s( 6) = (     0         -1          0      )
                  (    -1          0          0      )
                  (     0          0          1      )

 cart.    s( 6) = (  0.5000000 -0.8660254  0.0000000 )
                  ( -0.8660254 -0.5000000  0.0000000 )
                  (  0.0000000  0.0000000  1.0000000 )

   Cartesian axes

     site n.     atom                  positions (alat units)
         1           S   tau(   1) = (   0.2499995   0.1443379   0.5479698  )
         2           S   tau(   2) = (   0.7499995   0.1443379   0.5479698  )
         3           S   tau(   3) = (  -0.0000005   0.5773506   0.5479698  )
         4           S   tau(   4) = (   0.4999995   0.5773506   0.5479698  )
         5           Mo  tau(   5) = (   0.0000005   0.2886748   1.0959395  )
         6           Mo  tau(   6) = (   0.5000005   0.2886748   1.0959395  )
         7           Mo  tau(   7) = (  -0.2499995   0.7216875   1.0959395  )
         8           Mo  tau(   8) = (   0.2500005   0.7216875   1.0959395  )
         9           S   tau(   9) = (   0.2499995   0.1443379   1.6439093  )
        10           S   tau(  10) = (   0.7499995   0.1443379   1.6439093  )
        11           S   tau(  11) = (  -0.0000005   0.5773506   1.6439093  )
        12           S   tau(  12) = (   0.4999995   0.5773506   1.6439093  )

   Crystallographic axes

     site n.     atom                  positions (cryst. coord.)
         1           S   tau(   1) = (  0.3333330  0.1666670  0.1250000  )
         2           S   tau(   2) = (  0.8333330  0.1666670  0.1250000  )
         3           S   tau(   3) = (  0.3333330  0.6666670  0.1250000  )
         4           S   tau(   4) = (  0.8333330  0.6666670  0.1250000  )
         5           Mo  tau(   5) = (  0.1666670  0.3333330  0.2500000  )
         6           Mo  tau(   6) = (  0.6666670  0.3333330  0.2500000  )
         7           Mo  tau(   7) = (  0.1666670  0.8333330  0.2500000  )
         8           Mo  tau(   8) = (  0.6666670  0.8333330  0.2500000  )
         9           S   tau(   9) = (  0.3333330  0.1666670  0.3750000  )
        10           S   tau(  10) = (  0.8333330  0.1666670  0.3750000  )
        11           S   tau(  11) = (  0.3333330  0.6666670  0.3750000  )
        12           S   tau(  12) = (  0.8333330  0.6666670  0.3750000  )

     number of k points=     4  Gaussian smearing, width (Ry)=  0.0100
                       cart. coord. in units 2pi/alat
        k(    1) = (   0.0000000   0.0000000   0.0000000), wk =   0.1250000
        k(    2) = (   0.0000000   0.2886751   0.0000000), wk =   0.7500000
        k(    3) = (   0.0000000  -0.5773503   0.0000000), wk =   0.3750000
        k(    4) = (   0.2500000   0.4330127   0.0000000), wk =   0.7500000

                       cryst. coord.
        k(    1) = (   0.0000000   0.0000000   0.0000000), wk =   0.1250000
        k(    2) = (   0.0000000   0.2500000   0.0000000), wk =   0.7500000
        k(    3) = (   0.0000000  -0.5000000   0.0000000), wk =   0.3750000
        k(    4) = (   0.2500000   0.2500000   0.0000000), wk =   0.7500000

     Initial potential from superposition of free atoms

     starting charge  103.99622, renormalised to  104.00000

     negative rho (up, down):  8.685E-03 0.000E+00
     Starting wfcs are   72 randomized atomic wfcs

     Self-consistent Calculation

     iteration #  1     ecut=    60.00 Ry     beta= 0.50
     CG style diagonalization
     ethr =  1.00E-02,  avg # of iterations =  2.1

     Threshold (ethr) on eigenvalues was too large:
     Diagonalizing with lowered threshold

     CG style diagonalization
     ethr =  3.51E-04,  avg # of iterations =  3.0

     negative rho (up, down):  9.290E-03 0.000E+00

     total energy              =    -723.37591290 Ry
     estimated scf accuracy    <       0.45269637 Ry

[...]

     End of self-consistent calculation

          k = 0.0000 0.0000 0.0000 ( 49839 PWs)   bands (ev):

   -63.8085 -63.7711 -63.7706 -63.7706 -38.0987 -38.0559 -38.0555 -38.0555
   -37.8258 -37.8258 -37.8256 -37.5713 -37.5713 -37.5710 -37.4892 -37.4892
   -14.9901 -14.9858 -13.2919 -13.2919 -13.2918 -13.2915 -13.2915 -13.2914
    -6.4864  -6.0791  -6.0790  -6.0790  -6.0575  -6.0575  -6.0575  -4.9192
    -4.9192  -4.9191  -4.8803  -4.7999  -4.1269  -4.1269  -4.1268  -3.1526
    -3.1526  -3.1526  -2.7261  -2.7261  -2.6690  -2.6690  -2.6689  -2.2411
    -2.0415  -2.0415  -2.0415  -2.0315  -2.0313  -2.0313  -1.9173  -1.9173
    -1.9173  -1.7228  -1.7228  -1.7227  -1.3734  -1.3734

     occupation numbers
     1.0000   1.0000   1.0000   1.0000   1.0000   1.0000   1.0000   1.0000
     1.0000   1.0000   1.0000   1.0000   1.0000   1.0000   1.0000   1.0000
     1.0000   1.0000   1.0000   1.0000   1.0000   1.0000   1.0000   1.0000
     1.0000   1.0000   1.0000   1.0000   1.0000   1.0000   1.0000   1.0000
     1.0000   1.0000   1.0000   1.0000   1.0000   1.0000   1.0000   1.0000
     1.0000   1.0000   0.9965   0.9965   0.9824   0.9824   0.9824   0.0096
     0.0000   0.0000   0.0000   0.0000   0.0000   0.0000   0.0000   0.0000
     0.0000   0.0000   0.0000   0.0000   0.0000   0.0000

[...]

     the Fermi energy is    -2.4663 ev

!    total energy              =    -723.50278822 Ry
     estimated scf accuracy    <       0.00000019 Ry
     smearing contrib. (-TS)   =      -0.00891584 Ry
     internal energy E=F+TS    =    -723.49387238 Ry

     The total energy is F=E-TS. E is the sum of the following terms:
     one-electron contribution =   -5038.57815766 Ry
     hartree contribution      =    2514.77570041 Ry
     xc contribution           =    -114.69065410 Ry
     ewald contribution        =    1914.99923897 Ry

     convergence has been achieved in  18 iterations

[...]

     Forces acting on atoms (cartesian axes, Ry/au):

     atom    1 type  2   force =     0.00000442    0.00000255    0.03501893
     atom    2 type  2   force =    -0.00000442    0.00000255    0.03501893
     atom    3 type  2   force =     0.00000000    0.00000000    0.03502346
     atom    4 type  2   force =     0.00000000   -0.00000510    0.03501893
     atom    5 type  1   force =     0.00000000    0.00001864   -0.00010355
     atom    6 type  1   force =     0.00000000    0.00000000   -0.00011275
     atom    7 type  1   force =     0.00001614   -0.00000932   -0.00010355
     atom    8 type  1   force =    -0.00001614   -0.00000932   -0.00010355
     atom    9 type  2   force =    -0.00000047   -0.00000027   -0.03491298
     atom   10 type  2   force =     0.00000047   -0.00000027   -0.03491298
     atom   11 type  2   force =     0.00000000   -0.00000000   -0.03491792
     atom   12 type  2   force =     0.00000000    0.00000055   -0.03491298
[...]
     atom    6 type  1   force =     0.00000000    0.00000000    0.00000000
     atom    7 type  1   force =     0.00000000    0.00000000    0.00000000
     atom    8 type  1   force =     0.00000000    0.00000000    0.00000000
     atom    9 type  2   force =     0.00000000    0.00000000    0.00000000
     atom   10 type  2   force =     0.00000000    0.00000000    0.00000000
     atom   11 type  2   force =     0.00000000    0.00000000    0.00000000
     atom   12 type  2   force =     0.00000000    0.00000000    0.00000000
     The SCF correction term to forces
     atom    1 type  2   force =    -0.00002547   -0.00001471    0.00022376
     atom    2 type  2   force =     0.00002547   -0.00001471    0.00022376
     atom    3 type  2   force =     0.00000000   -0.00000000    0.00025317
     atom    4 type  2   force =     0.00000000    0.00002941    0.00022376
     atom    5 type  1   force =    -0.00000002    0.00005773    0.00021041
     atom    6 type  1   force =    -0.00000000    0.00000000    0.00018005
     atom    7 type  1   force =     0.00004998   -0.00002885    0.00021042
     atom    8 type  1   force =    -0.00005001   -0.00002885    0.00021041
     atom    9 type  2   force =    -0.00002516   -0.00001452    0.00005486
     atom   10 type  2   force =     0.00002516   -0.00001452    0.00005486
     atom   11 type  2   force =     0.00000000   -0.00000000    0.00001947
     atom   12 type  2   force =     0.00000000    0.00002905    0.00005486

     Total force =     0.098902     Total SCF correction =     0.000636

     BFGS Geometry Optimization
     Energy error            =      0.0E+00
     Gradient error          =      3.5E-02

     number of scf cycles    =   1
     number of bfgs steps    =   0

     energy   new            =    -723.5027882169 Ry

     new trust radius        =       0.0350234631 bohr
     new conv_thr            =       0.0000010000 Ry

ATOMIC_POSITIONS (crystal)
S             0.3333334964        0.1666672482        0.1256731283
S             0.8333327518        0.1666672482        0.1256731283
S             0.3333330000        0.6666670000        0.1256732153
S             0.8333327518        0.6666665036        0.1256731283
Mo            0.1666679068        0.3333348136        0.2499980095
Mo            0.6666670000        0.3333330000        0.2499978327
Mo            0.1666679068        0.8333320932        0.2499980095
Mo            0.6666651864        0.8333320932        0.2499980095
S             0.3333329467        0.1666669734        0.3743289084
S             0.8333330266        0.1666669734        0.3743289084
S             0.3333330000        0.6666670000        0.3743288135
S             0.8333330266        0.6666670533        0.3743289084

     Writing output data file ./out/MoS2.save/
     NEW-OLD atomic charge density approx. for the potential

[...]

     iteration #  3     ecut=    60.00 Ry     beta= 0.50
     CG style diagonalization
     c_bands:  1 eigenvalues not converged
     ethr =  1.57E-07,  avg # of iterations =  3.6

[...]

     Total force =     0.100362     Total SCF correction =     0.001267
     Energy error            =      9.9E-03
     Gradient error          =      3.5E-02

[...]

     energy   old            =    -723.5027882169 Ry
     energy   new            =    -723.5126480363 Ry

     CASE: energy  _new < energy  _old

     WARNING: bfgs curvature condition failed, Theta= 0.788
     new trust radius        =       0.0385258094 bohr
     new conv_thr            =       0.0000010000 Ry

[...]

     WARNING: bfgs curvature condition failed, Theta= 0.603
     uphill step: resetting bfgs history

[...]

     WARNING: bfgs curvature condition failed, Theta= 0.545
     uphill step: resetting bfgs history

[...]

     WARNING: bfgs curvature condition failed, Theta= 0.797
     new trust radius        =       0.1518268665 bohr
     new conv_thr            =       0.0000010000 Ry

[...]

     Total force =     0.018152     Total SCF correction =     0.000549
     Energy error            =      2.0E-02
     Gradient error          =      6.5E-03

[...]

     iteration #  1     ecut=    60.00 Ry     beta= 0.50
     CG style diagonalization
     c_bands:  1 eigenvalues not converged
     ethr =  1.00E-06,  avg # of iterations =  4.6

[...]

     CG style diagonalization
     c_bands:  2 eigenvalues not converged
     ethr =  5.02E-08,  avg # of iterations =  4.4

[...]

     Total force =     0.001568     Total SCF correction =     0.001289
     SCF correction compared to forces is large: reduce conv_thr to get better values
     Energy error            =      4.3E-04
     Gradient error          =      5.5E-04

[...]

     CG style diagonalization
     ethr =  1.81E-08,  avg # of iterations =  4.0

[...]

     number of scf cycles    =  36
     number of bfgs steps    =  35

     energy   old            =    -726.3133033892 Ry
     energy   new            =    -726.3133063637 Ry

     CASE: energy  _new < energy  _old

     new trust radius        =       0.0001834654 bohr
     new conv_thr            =       0.0000000150 Ry

ATOMIC_POSITIONS (crystal)
S             0.3333620407        0.1666815203        0.1926274431
S             0.8333184797        0.1666815203        0.1926274431
S             0.3333330000        0.6666670000        0.1926334348
S             0.8333184797        0.6666379593        0.1926274431
Mo            0.1666647832        0.3333285665        0.2499997208
Mo            0.6666670000        0.3333330000        0.2500004328
Mo            0.1666647832        0.8333352168        0.2499997208
Mo            0.6666714335        0.8333352168        0.2499997208
S             0.3333510727        0.1666760363        0.3073714442
S             0.8333239637        0.1666760363        0.3073714442
S             0.3333330000        0.6666670000        0.3073703082
S             0.8333239637        0.6666489273        0.3073714442

     Writing output data file ./out/MoS2.save/
     NEW-OLD atomic charge density approx. for the potential

[...]

     Self-consistent Calculation

[...]

     Threshold (ethr) on eigenvalues was too large:
     Diagonalizing with lowered threshold

     CG style diagonalization
     c_bands:  1 eigenvalues not converged
     c_bands:  1 eigenvalues not converged
     ethr =  5.48E-10,  avg # of iterations =  6.7

[...]

     total energy              =    -726.31330647 Ry
     estimated scf accuracy    <       0.00000011 Ry

     iteration #  4     ecut=    60.00 Ry     beta= 0.50
     CG style diagonalization
     ethr =  1.09E-10,  avg # of iterations =  3.6

[...]

     End of self-consistent calculation

[...]

          k = 0.2500 0.4330 0.0000 ( 49775 PWs)   bands (ev):

   -63.0262 -63.0104 -63.0104 -62.9946 -37.3033 -37.2514 -37.2514 -37.1814
   -37.1792 -37.1488 -37.1487 -37.1182 -37.1178 -37.0503 -37.0503 -37.0004
   -15.7132 -15.0050 -15.0046 -14.8211 -14.5175 -14.5172 -14.1506 -14.1295
    -7.6011  -7.3203  -7.3201  -7.2597  -7.2428  -6.3600  -6.3598  -6.1363
    -6.0091  -6.0090  -5.8194  -5.4366  -5.4161  -5.4115  -5.4113  -5.2704
    -4.8310  -4.3273  -4.1155  -4.1022  -4.1021  -3.5406  -3.5404  -3.1487
    -2.9975  -2.9974  -2.7950  -2.3140  -0.2178  -0.2176  -0.1785  -0.1531
     0.3268   0.3680   0.3973   0.8249   0.8255   0.8844

     occupation numbers
     1.0000   1.0000   1.0000   1.0000   1.0000   1.0000   1.0000   1.0000
     1.0000   1.0000   1.0000   1.0000   1.0000   1.0000   1.0000   1.0000
     1.0000   1.0000   1.0000   1.0000   1.0000   1.0000   1.0000   1.0000
     1.0000   1.0000   1.0000   1.0000   1.0000   1.0000   1.0000   1.0000
     1.0000   1.0000   1.0000   1.0000   1.0000   1.0000   1.0000   1.0000
     1.0000   1.0000   1.0000   1.0000   1.0000   1.0000   1.0000   1.0000
     1.0000   1.0000   1.0000   1.0000   0.0000   0.0000   0.0000   0.0000
     0.0000   0.0000   0.0000   0.0000   0.0000   0.0000

     the Fermi energy is    -1.6791 ev

!    total energy              =    -726.31330650 Ry
     estimated scf accuracy    <          2.2E-09 Ry
     smearing contrib. (-TS)   =      -0.00000000 Ry
     internal energy E=F+TS    =    -726.31330650 Ry

     The total energy is F=E-TS. E is the sum of the following terms:
     one-electron contribution =   -7129.01030452 Ry
     hartree contribution      =    3560.73306091 Ry
     xc contribution           =    -118.91666708 Ry
     ewald contribution        =    2960.88060419 Ry

     convergence has been achieved in   4 iterations

     negative rho (up, down):  1.444E-02 0.000E+00

     Forces acting on atoms (cartesian axes, Ry/au):

     atom    1 type  2   force =    -0.00007219   -0.00004168    0.00000673
     atom    2 type  2   force =     0.00007219   -0.00004168    0.00000673
     atom    3 type  2   force =     0.00000000    0.00000000   -0.00006908
     atom    4 type  2   force =     0.00000000    0.00008336    0.00000673
     atom    5 type  1   force =     0.00000000   -0.00000021    0.00001075
     atom    6 type  1   force =     0.00000000    0.00000000   -0.00000208
     atom    7 type  1   force =    -0.00000018    0.00000010    0.00001075
     atom    8 type  1   force =     0.00000018    0.00000010    0.00001075
     atom    9 type  2   force =    -0.00005029   -0.00002904    0.00000386
     atom   10 type  2   force =     0.00005029   -0.00002904    0.00000386
     atom   11 type  2   force =     0.00000000    0.00000000    0.00000713
     atom   12 type  2   force =     0.00000000    0.00005807    0.00000386
     The non-local contrib.  to forces
     atom    1 type  2   force =    -0.00004560   -0.00002633    0.26961004
     atom    2 type  2   force =     0.00004560   -0.00002633    0.26961004
     atom    3 type  2   force =     0.00000000    0.00000000    0.26959413
     atom    4 type  2   force =     0.00000000    0.00005265    0.26961004
     atom    5 type  1   force =     0.00000000    0.00000240   -0.00000535
     atom    6 type  1   force =    -0.00000000    0.00000000   -0.00000099
     atom    7 type  1   force =     0.00000208   -0.00000120   -0.00000535
     atom    8 type  1   force =    -0.00000208   -0.00000120   -0.00000535
     atom    9 type  2   force =    -0.00002800   -0.00001617   -0.26960265
     atom   10 type  2   force =     0.00002800   -0.00001617   -0.26960265
     atom   11 type  2   force =     0.00000000    0.00000000   -0.26962190
     atom   12 type  2   force =     0.00000000    0.00003234   -0.26960265
     The ionic contribution  to forces
     atom    1 type  2   force =    -0.00120710   -0.00071549  -39.73126433
     atom    2 type  2   force =     0.00123928   -0.00071550  -39.73126434
     atom    3 type  2   force =     0.00001610   -0.00000929  -39.72944511
     atom    4 type  2   force =     0.00001609    0.00140312  -39.73126433
     atom    5 type  1   force =    -0.00003219   -0.00145351   -0.00046515
     atom    6 type  1   force =    -0.00003218    0.00001858    0.00130806
     atom    7 type  1   force =    -0.00130705    0.00075462   -0.00046514
     atom    8 type  1   force =     0.00124268    0.00075464   -0.00046515
     atom    9 type  2   force =    -0.00089724   -0.00053660   39.73097754
     atom   10 type  2   force =     0.00092943   -0.00053661   39.73097755
     atom   11 type  2   force =     0.00001609   -0.00000929   39.73039287
     atom   12 type  2   force =     0.00001609    0.00104534   39.73097754
     The local contribution  to forces
     atom    1 type  2   force =     0.00123771    0.00068877   39.46387708
     atom    2 type  2   force =    -0.00119300    0.00068878   39.46387708
     atom    3 type  2   force =     0.00002235   -0.00001291   39.46198600
     atom    4 type  2   force =     0.00002236   -0.00141628   39.46387708
     atom    5 type  1   force =    -0.00040916    0.00171924    0.00047944
     atom    6 type  1   force =    -0.00040917    0.00023623   -0.00132541
     atom    7 type  1   force =     0.00087516   -0.00050527    0.00047944
     atom    8 type  1   force =    -0.00169348   -0.00050528    0.00047944
     atom    9 type  2   force =     0.00093135    0.00051189  -39.46358566
     atom   10 type  2   force =    -0.00088663    0.00051190  -39.46358567
     atom   11 type  2   force =     0.00002236   -0.00001291  -39.46297105
     atom   12 type  2   force =     0.00002236   -0.00106252  -39.46358566
     The core correction contribution to forces
     atom    1 type  2   force =     0.00000139    0.00000119   -0.00222672
     atom    2 type  2   force =    -0.00000206    0.00000119   -0.00222672
     atom    3 type  2   force =    -0.00000034    0.00000020   -0.00222561
     atom    4 type  2   force =    -0.00000034   -0.00000180   -0.00222672
     atom    5 type  1   force =     0.00000354   -0.00000243    0.00000026
     atom    6 type  1   force =     0.00000354   -0.00000205   -0.00000006
     atom    7 type  1   force =     0.00000321   -0.00000186    0.00000026
     atom    8 type  1   force =     0.00000388   -0.00000186    0.00000026
     atom    9 type  2   force =     0.00000084    0.00000088    0.00222631
     atom   10 type  2   force =    -0.00000152    0.00000088    0.00222631
     atom   11 type  2   force =    -0.00000034    0.00000020    0.00222709
     atom   12 type  2   force =    -0.00000034   -0.00000117    0.00222631
     The Hubbard contrib.    to forces
     atom    1 type  2   force =     0.00000000    0.00000000    0.00000000
     atom    2 type  2   force =     0.00000000    0.00000000    0.00000000
     atom    3 type  2   force =     0.00000000    0.00000000    0.00000000
     atom    4 type  2   force =     0.00000000    0.00000000    0.00000000
     atom    5 type  1   force =     0.00000000    0.00000000    0.00000000
     atom    6 type  1   force =     0.00000000    0.00000000    0.00000000
     atom    7 type  1   force =     0.00000000    0.00000000    0.00000000
     atom    8 type  1   force =     0.00000000    0.00000000    0.00000000
     atom    9 type  2   force =     0.00000000    0.00000000    0.00000000
     atom   10 type  2   force =     0.00000000    0.00000000    0.00000000
     atom   11 type  2   force =     0.00000000    0.00000000    0.00000000
     atom   12 type  2   force =     0.00000000    0.00000000    0.00000000
     The SCF correction term to forces
     atom    1 type  2   force =    -0.00002048   -0.00001182    0.00001238
     atom    2 type  2   force =     0.00002048   -0.00001182    0.00001238
     atom    3 type  2   force =    -0.00000000    0.00000000    0.00002322
     atom    4 type  2   force =     0.00000000    0.00002365    0.00001238
     atom    5 type  1   force =    -0.00000000   -0.00001315    0.00000325
     atom    6 type  1   force =     0.00000000   -0.00000000    0.00001803
     atom    7 type  1   force =    -0.00001139    0.00000658    0.00000325
     atom    8 type  1   force =     0.00001139    0.00000658    0.00000325
     atom    9 type  2   force =    -0.00001912   -0.00001104   -0.00000996
     atom   10 type  2   force =     0.00001912   -0.00001104   -0.00000996
     atom   11 type  2   force =     0.00000000   -0.00000000   -0.00001816
     atom   12 type  2   force =     0.00000000    0.00002208   -0.00000996

     Total force =     0.000191     Total SCF correction =     0.000075
     SCF correction compared to forces is large: reduce conv_thr to get better values
     Energy error            =      1.4E-07
     Gradient error          =      8.3E-05

     bfgs converged in  37 scf cycles and  36 bfgs steps
     (criteria: energy <  1.0E-06 Ry, force <  1.0E-04 Ry/Bohr)

     End of BFGS Geometry Optimization

     Final energy   =    -726.3133065000 Ry

     File ./out/MoS2.bfgs deleted, as requested
Begin final coordinates

ATOMIC_POSITIONS (crystal)
S             0.3333620407        0.1666815203        0.1926274431
S             0.8333184797        0.1666815203        0.1926274431
S             0.3333330000        0.6666670000        0.1926334348
S             0.8333184797        0.6666379593        0.1926274431
Mo            0.1666647832        0.3333285665        0.2499997208
Mo            0.6666670000        0.3333330000        0.2500004328
Mo            0.1666647832        0.8333352168        0.2499997208
Mo            0.6666714335        0.8333352168        0.2499997208
S             0.3333510727        0.1666760363        0.3073714442
S             0.8333239637        0.1666760363        0.3073714442
S             0.3333330000        0.6666670000        0.3073703082
S             0.8333239637        0.6666489273        0.3073714442
End final coordinates

     Writing output data file ./out/MoS2.save/

     General routines

     Parallel routines

   This run was terminated on:  17: 8:51  29Jun2021

   JOB DONE.